c t mc
c file mc2022_track1_150.cnf
p cnf 112 784
1 57 2 58 0
-1 57 -2 58 0
1 -57 2 -58 0
-1 -57 -2 -58 0
1 57 35 91 0
-1 57 -35 91 0
1 -57 35 -91 0
-1 -57 -35 -91 0
1 57 3 59 0
-1 57 -3 59 0
1 -57 3 -59 0
-1 -57 -3 -59 0
1 57 17 73 0
-1 57 -17 73 0
1 -57 17 -73 0
-1 -57 -17 -73 0
1 57 12 68 0
-1 57 -12 68 0
1 -57 12 -68 0
-1 -57 -12 -68 0
1 57 3 59 0
-1 57 -3 59 0
1 -57 3 -59 0
-1 -57 -3 -59 0
1 57 22 78 0
-1 57 -22 78 0
1 -57 22 -78 0
-1 -57 -22 -78 0
2 58 46 102 0
-2 58 -46 102 0
2 -58 46 -102 0
-2 -58 -46 -102 0
2 58 29 85 0
-2 58 -29 85 0
2 -58 29 -85 0
-2 -58 -29 -85 0
2 58 15 71 0
-2 58 -15 71 0
2 -58 15 -71 0
-2 -58 -15 -71 0
2 58 21 77 0
-2 58 -21 77 0
2 -58 21 -77 0
-2 -58 -21 -77 0
2 58 6 62 0
-2 58 -6 62 0
2 -58 6 -62 0
-2 -58 -6 -62 0
2 58 27 83 0
-2 58 -27 83 0
2 -58 27 -83 0
-2 -58 -27 -83 0
3 59 29 85 0
-3 59 -29 85 0
3 -59 29 -85 0
-3 -59 -29 -85 0
3 59 16 72 0
-3 59 -16 72 0
3 -59 16 -72 0
-3 -59 -16 -72 0
3 59 36 92 0
-3 59 -36 92 0
3 -59 36 -92 0
-3 -59 -36 -92 0
3 59 52 108 0
-3 59 -52 108 0
3 -59 52 -108 0
-3 -59 -52 -108 0
3 59 32 88 0
-3 59 -32 88 0
3 -59 32 -88 0
-3 -59 -32 -88 0
4 60 17 73 0
-4 60 -17 73 0
4 -60 17 -73 0
-4 -60 -17 -73 0
4 60 43 99 0
-4 60 -43 99 0
4 -60 43 -99 0
-4 -60 -43 -99 0
4 60 51 107 0
-4 60 -51 107 0
4 -60 51 -107 0
-4 -60 -51 -107 0
4 60 37 93 0
-4 60 -37 93 0
4 -60 37 -93 0
-4 -60 -37 -93 0
4 60 18 74 0
-4 60 -18 74 0
4 -60 18 -74 0
-4 -60 -18 -74 0
4 60 34 90 0
-4 60 -34 90 0
4 -60 34 -90 0
-4 -60 -34 -90 0
4 60 45 101 0
-4 60 -45 101 0
4 -60 45 -101 0
-4 -60 -45 -101 0
5 61 7 63 0
-5 61 -7 63 0
5 -61 7 -63 0
-5 -61 -7 -63 0
5 61 25 81 0
-5 61 -25 81 0
5 -61 25 -81 0
-5 -61 -25 -81 0
5 61 42 98 0
-5 61 -42 98 0
5 -61 42 -98 0
-5 -61 -42 -98 0
5 61 19 75 0
-5 61 -19 75 0
5 -61 19 -75 0
-5 -61 -19 -75 0
5 61 44 100 0
-5 61 -44 100 0
5 -61 44 -100 0
-5 -61 -44 -100 0
5 61 25 81 0
-5 61 -25 81 0
5 -61 25 -81 0
-5 -61 -25 -81 0
5 61 11 67 0
-5 61 -11 67 0
5 -61 11 -67 0
-5 -61 -11 -67 0
6 62 11 67 0
-6 62 -11 67 0
6 -62 11 -67 0
-6 -62 -11 -67 0
6 62 12 68 0
-6 62 -12 68 0
6 -62 12 -68 0
-6 -62 -12 -68 0
6 62 31 87 0
-6 62 -31 87 0
6 -62 31 -87 0
-6 -62 -31 -87 0
6 62 41 97 0
-6 62 -41 97 0
6 -62 41 -97 0
-6 -62 -41 -97 0
6 62 20 76 0
-6 62 -20 76 0
6 -62 20 -76 0
-6 -62 -20 -76 0
6 62 12 68 0
-6 62 -12 68 0
6 -62 12 -68 0
-6 -62 -12 -68 0
7 63 52 108 0
-7 63 -52 108 0
7 -63 52 -108 0
-7 -63 -52 -108 0
7 63 53 109 0
-7 63 -53 109 0
7 -63 53 -109 0
-7 -63 -53 -109 0
7 63 47 103 0
-7 63 -47 103 0
7 -63 47 -103 0
-7 -63 -47 -103 0
7 63 19 75 0
-7 63 -19 75 0
7 -63 19 -75 0
-7 -63 -19 -75 0
7 63 44 100 0
-7 63 -44 100 0
7 -63 44 -100 0
-7 -63 -44 -100 0
7 63 23 79 0
-7 63 -23 79 0
7 -63 23 -79 0
-7 -63 -23 -79 0
8 64 17 73 0
-8 64 -17 73 0
8 -64 17 -73 0
-8 -64 -17 -73 0
8 64 49 105 0
-8 64 -49 105 0
8 -64 49 -105 0
-8 -64 -49 -105 0
8 64 19 75 0
-8 64 -19 75 0
8 -64 19 -75 0
-8 -64 -19 -75 0
8 64 41 97 0
-8 64 -41 97 0
8 -64 41 -97 0
-8 -64 -41 -97 0
8 64 31 87 0
-8 64 -31 87 0
8 -64 31 -87 0
-8 -64 -31 -87 0
8 64 45 101 0
-8 64 -45 101 0
8 -64 45 -101 0
-8 -64 -45 -101 0
8 64 41 97 0
-8 64 -41 97 0
8 -64 41 -97 0
-8 -64 -41 -97 0
9 65 30 86 0
-9 65 -30 86 0
9 -65 30 -86 0
-9 -65 -30 -86 0
9 65 54 110 0
-9 65 -54 110 0
9 -65 54 -110 0
-9 -65 -54 -110 0
9 65 38 94 0
-9 65 -38 94 0
9 -65 38 -94 0
-9 -65 -38 -94 0
9 65 10 66 0
-9 65 -10 66 0
9 -65 10 -66 0
-9 -65 -10 -66 0
9 65 53 109 0
-9 65 -53 109 0
9 -65 53 -109 0
-9 -65 -53 -109 0
9 65 35 91 0
-9 65 -35 91 0
9 -65 35 -91 0
-9 -65 -35 -91 0
9 65 43 99 0
-9 65 -43 99 0
9 -65 43 -99 0
-9 -65 -43 -99 0
10 66 28 84 0
-10 66 -28 84 0
10 -66 28 -84 0
-10 -66 -28 -84 0
10 66 34 90 0
-10 66 -34 90 0
10 -66 34 -90 0
-10 -66 -34 -90 0
10 66 30 86 0
-10 66 -30 86 0
10 -66 30 -86 0
-10 -66 -30 -86 0
10 66 18 74 0
-10 66 -18 74 0
10 -66 18 -74 0
-10 -66 -18 -74 0
10 66 23 79 0
-10 66 -23 79 0
10 -66 23 -79 0
-10 -66 -23 -79 0
10 66 39 95 0
-10 66 -39 95 0
10 -66 39 -95 0
-10 -66 -39 -95 0
11 67 24 80 0
-11 67 -24 80 0
11 -67 24 -80 0
-11 -67 -24 -80 0
11 67 13 69 0
-11 67 -13 69 0
11 -67 13 -69 0
-11 -67 -13 -69 0
11 67 56 112 0
-11 67 -56 112 0
11 -67 56 -112 0
-11 -67 -56 -112 0
11 67 29 85 0
-11 67 -29 85 0
11 -67 29 -85 0
-11 -67 -29 -85 0
11 67 30 86 0
-11 67 -30 86 0
11 -67 30 -86 0
-11 -67 -30 -86 0
12 68 16 72 0
-12 68 -16 72 0
12 -68 16 -72 0
-12 -68 -16 -72 0
12 68 21 77 0
-12 68 -21 77 0
12 -68 21 -77 0
-12 -68 -21 -77 0
12 68 23 79 0
-12 68 -23 79 0
12 -68 23 -79 0
-12 -68 -23 -79 0
12 68 32 88 0
-12 68 -32 88 0
12 -68 32 -88 0
-12 -68 -32 -88 0
13 69 41 97 0
-13 69 -41 97 0
13 -69 41 -97 0
-13 -69 -41 -97 0
13 69 35 91 0
-13 69 -35 91 0
13 -69 35 -91 0
-13 -69 -35 -91 0
13 69 33 89 0
-13 69 -33 89 0
13 -69 33 -89 0
-13 -69 -33 -89 0
13 69 25 81 0
-13 69 -25 81 0
13 -69 25 -81 0
-13 -69 -25 -81 0
13 69 31 87 0
-13 69 -31 87 0
13 -69 31 -87 0
-13 -69 -31 -87 0
13 69 20 76 0
-13 69 -20 76 0
13 -69 20 -76 0
-13 -69 -20 -76 0
14 70 34 90 0
-14 70 -34 90 0
14 -70 34 -90 0
-14 -70 -34 -90 0
14 70 47 103 0
-14 70 -47 103 0
14 -70 47 -103 0
-14 -70 -47 -103 0
14 70 29 85 0
-14 70 -29 85 0
14 -70 29 -85 0
-14 -70 -29 -85 0
14 70 40 96 0
-14 70 -40 96 0
14 -70 40 -96 0
-14 -70 -40 -96 0
14 70 37 93 0
-14 70 -37 93 0
14 -70 37 -93 0
-14 -70 -37 -93 0
14 70 19 75 0
-14 70 -19 75 0
14 -70 19 -75 0
-14 -70 -19 -75 0
14 70 41 97 0
-14 70 -41 97 0
14 -70 41 -97 0
-14 -70 -41 -97 0
15 71 41 97 0
-15 71 -41 97 0
15 -71 41 -97 0
-15 -71 -41 -97 0
15 71 18 74 0
-15 71 -18 74 0
15 -71 18 -74 0
-15 -71 -18 -74 0
15 71 32 88 0
-15 71 -32 88 0
15 -71 32 -88 0
-15 -71 -32 -88 0
15 71 41 97 0
-15 71 -41 97 0
15 -71 41 -97 0
-15 -71 -41 -97 0
15 71 21 77 0
-15 71 -21 77 0
15 -71 21 -77 0
-15 -71 -21 -77 0
15 71 50 106 0
-15 71 -50 106 0
15 -71 50 -106 0
-15 -71 -50 -106 0
16 72 31 87 0
-16 72 -31 87 0
16 -72 31 -87 0
-16 -72 -31 -87 0
16 72 20 76 0
-16 72 -20 76 0
16 -72 20 -76 0
-16 -72 -20 -76 0
16 72 34 90 0
-16 72 -34 90 0
16 -72 34 -90 0
-16 -72 -34 -90 0
16 72 33 89 0
-16 72 -33 89 0
16 -72 33 -89 0
-16 -72 -33 -89 0
16 72 20 76 0
-16 72 -20 76 0
16 -72 20 -76 0
-16 -72 -20 -76 0
17 73 36 92 0
-17 73 -36 92 0
17 -73 36 -92 0
-17 -73 -36 -92 0
17 73 55 111 0
-17 73 -55 111 0
17 -73 55 -111 0
-17 -73 -55 -111 0
17 73 49 105 0
-17 73 -49 105 0
17 -73 49 -105 0
-17 -73 -49 -105 0
17 73 51 107 0
-17 73 -51 107 0
17 -73 51 -107 0
-17 -73 -51 -107 0
18 74 36 92 0
-18 74 -36 92 0
18 -74 36 -92 0
-18 -74 -36 -92 0
18 74 33 89 0
-18 74 -33 89 0
18 -74 33 -89 0
-18 -74 -33 -89 0
18 74 37 93 0
-18 74 -37 93 0
18 -74 37 -93 0
-18 -74 -37 -93 0
18 74 49 105 0
-18 74 -49 105 0
18 -74 49 -105 0
-18 -74 -49 -105 0
19 75 33 89 0
-19 75 -33 89 0
19 -75 33 -89 0
-19 -75 -33 -89 0
19 75 52 108 0
-19 75 -52 108 0
19 -75 52 -108 0
-19 -75 -52 -108 0
19 75 35 91 0
-19 75 -35 91 0
19 -75 35 -91 0
-19 -75 -35 -91 0
20 76 50 106 0
-20 76 -50 106 0
20 -76 50 -106 0
-20 -76 -50 -106 0
20 76 49 105 0
-20 76 -49 105 0
20 -76 49 -105 0
-20 -76 -49 -105 0
20 76 52 108 0
-20 76 -52 108 0
20 -76 52 -108 0
-20 -76 -52 -108 0
21 77 22 78 0
-21 77 -22 78 0
21 -77 22 -78 0
-21 -77 -22 -78 0
21 77 27 83 0
-21 77 -27 83 0
21 -77 27 -83 0
-21 -77 -27 -83 0
21 77 25 81 0
-21 77 -25 81 0
21 -77 25 -81 0
-21 -77 -25 -81 0
21 77 32 88 0
-21 77 -32 88 0
21 -77 32 -88 0
-21 -77 -32 -88 0
22 78 40 96 0
-22 78 -40 96 0
22 -78 40 -96 0
-22 -78 -40 -96 0
22 78 54 110 0
-22 78 -54 110 0
22 -78 54 -110 0
-22 -78 -54 -110 0
22 78 39 95 0
-22 78 -39 95 0
22 -78 39 -95 0
-22 -78 -39 -95 0
22 78 23 79 0
-22 78 -23 79 0
22 -78 23 -79 0
-22 -78 -23 -79 0
22 78 37 93 0
-22 78 -37 93 0
22 -78 37 -93 0
-22 -78 -37 -93 0
23 79 29 85 0
-23 79 -29 85 0
23 -79 29 -85 0
-23 -79 -29 -85 0
23 79 27 83 0
-23 79 -27 83 0
23 -79 27 -83 0
-23 -79 -27 -83 0
23 79 50 106 0
-23 79 -50 106 0
23 -79 50 -106 0
-23 -79 -50 -106 0
24 80 39 95 0
-24 80 -39 95 0
24 -80 39 -95 0
-24 -80 -39 -95 0
24 80 34 90 0
-24 80 -34 90 0
24 -80 34 -90 0
-24 -80 -34 -90 0
24 80 32 88 0
-24 80 -32 88 0
24 -80 32 -88 0
-24 -80 -32 -88 0
24 80 44 100 0
-24 80 -44 100 0
24 -80 44 -100 0
-24 -80 -44 -100 0
24 80 47 103 0
-24 80 -47 103 0
24 -80 47 -103 0
-24 -80 -47 -103 0
24 80 54 110 0
-24 80 -54 110 0
24 -80 54 -110 0
-24 -80 -54 -110 0
25 81 53 109 0
-25 81 -53 109 0
25 -81 53 -109 0
-25 -81 -53 -109 0
25 81 31 87 0
-25 81 -31 87 0
25 -81 31 -87 0
-25 -81 -31 -87 0
25 81 44 100 0
-25 81 -44 100 0
25 -81 44 -100 0
-25 -81 -44 -100 0
26 82 52 108 0
-26 82 -52 108 0
26 -82 52 -108 0
-26 -82 -52 -108 0
26 82 48 104 0
-26 82 -48 104 0
26 -82 48 -104 0
-26 -82 -48 -104 0
26 82 34 90 0
-26 82 -34 90 0
26 -82 34 -90 0
-26 -82 -34 -90 0
26 82 32 88 0
-26 82 -32 88 0
26 -82 32 -88 0
-26 -82 -32 -88 0
26 82 44 100 0
-26 82 -44 100 0
26 -82 44 -100 0
-26 -82 -44 -100 0
26 82 35 91 0
-26 82 -35 91 0
26 -82 35 -91 0
-26 -82 -35 -91 0
26 82 33 89 0
-26 82 -33 89 0
26 -82 33 -89 0
-26 -82 -33 -89 0
27 83 53 109 0
-27 83 -53 109 0
27 -83 53 -109 0
-27 -83 -53 -109 0
27 83 45 101 0
-27 83 -45 101 0
27 -83 45 -101 0
-27 -83 -45 -101 0
27 83 38 94 0
-27 83 -38 94 0
27 -83 38 -94 0
-27 -83 -38 -94 0
27 83 56 112 0
-27 83 -56 112 0
27 -83 56 -112 0
-27 -83 -56 -112 0
28 84 45 101 0
-28 84 -45 101 0
28 -84 45 -101 0
-28 -84 -45 -101 0
28 84 36 92 0
-28 84 -36 92 0
28 -84 36 -92 0
-28 -84 -36 -92 0
28 84 51 107 0
-28 84 -51 107 0
28 -84 51 -107 0
-28 -84 -51 -107 0
28 84 38 94 0
-28 84 -38 94 0
28 -84 38 -94 0
-28 -84 -38 -94 0
28 84 42 98 0
-28 84 -42 98 0
28 -84 42 -98 0
-28 -84 -42 -98 0
28 84 40 96 0
-28 84 -40 96 0
28 -84 40 -96 0
-28 -84 -40 -96 0
29 85 33 89 0
-29 85 -33 89 0
29 -85 33 -89 0
-29 -85 -33 -89 0
29 85 31 87 0
-29 85 -31 87 0
29 -85 31 -87 0
-29 -85 -31 -87 0
30 86 36 92 0
-30 86 -36 92 0
30 -86 36 -92 0
-30 -86 -36 -92 0
30 86 38 94 0
-30 86 -38 94 0
30 -86 38 -94 0
-30 -86 -38 -94 0
30 86 39 95 0
-30 86 -39 95 0
30 -86 39 -95 0
-30 -86 -39 -95 0
30 86 55 111 0
-30 86 -55 111 0
30 -86 55 -111 0
-30 -86 -55 -111 0
31 87 42 98 0
-31 87 -42 98 0
31 -87 42 -98 0
-31 -87 -42 -98 0
32 88 54 110 0
-32 88 -54 110 0
32 -88 54 -110 0
-32 -88 -54 -110 0
33 89 35 91 0
-33 89 -35 91 0
33 -89 35 -91 0
-33 -89 -35 -91 0
34 90 39 95 0
-34 90 -39 95 0
34 -90 39 -95 0
-34 -90 -39 -95 0
35 91 51 107 0
-35 91 -51 107 0
35 -91 51 -107 0
-35 -91 -51 -107 0
36 92 43 99 0
-36 92 -43 99 0
36 -92 43 -99 0
-36 -92 -43 -99 0
36 92 53 109 0
-36 92 -53 109 0
36 -92 53 -109 0
-36 -92 -53 -109 0
37 93 40 96 0
-37 93 -40 96 0
37 -93 40 -96 0
-37 -93 -40 -96 0
37 93 53 109 0
-37 93 -53 109 0
37 -93 53 -109 0
-37 -93 -53 -109 0
37 93 51 107 0
-37 93 -51 107 0
37 -93 51 -107 0
-37 -93 -51 -107 0
38 94 50 106 0
-38 94 -50 106 0
38 -94 50 -106 0
-38 -94 -50 -106 0
38 94 48 104 0
-38 94 -48 104 0
38 -94 48 -104 0
-38 -94 -48 -104 0
38 94 45 101 0
-38 94 -45 101 0
38 -94 45 -101 0
-38 -94 -45 -101 0
39 95 52 108 0
-39 95 -52 108 0
39 -95 52 -108 0
-39 -95 -52 -108 0
39 95 55 111 0
-39 95 -55 111 0
39 -95 55 -111 0
-39 -95 -55 -111 0
40 96 55 111 0
-40 96 -55 111 0
40 -96 55 -111 0
-40 -96 -55 -111 0
40 96 46 102 0
-40 96 -46 102 0
40 -96 46 -102 0
-40 -96 -46 -102 0
40 96 48 104 0
-40 96 -48 104 0
40 -96 48 -104 0
-40 -96 -48 -104 0
42 98 46 102 0
-42 98 -46 102 0
42 -98 46 -102 0
-42 -98 -46 -102 0
42 98 45 101 0
-42 98 -45 101 0
42 -98 45 -101 0
-42 -98 -45 -101 0
42 98 48 104 0
-42 98 -48 104 0
42 -98 48 -104 0
-42 -98 -48 -104 0
42 98 46 102 0
-42 98 -46 102 0
42 -98 46 -102 0
-42 -98 -46 -102 0
43 99 46 102 0
-43 99 -46 102 0
43 -99 46 -102 0
-43 -99 -46 -102 0
43 99 49 105 0
-43 99 -49 105 0
43 -99 49 -105 0
-43 -99 -49 -105 0
43 99 56 112 0
-43 99 -56 112 0
43 -99 56 -112 0
-43 -99 -56 -112 0
43 99 51 107 0
-43 99 -51 107 0
43 -99 51 -107 0
-43 -99 -51 -107 0
44 100 47 103 0
-44 100 -47 103 0
44 -100 47 -103 0
-44 -100 -47 -103 0
44 100 48 104 0
-44 100 -48 104 0
44 -100 48 -104 0
-44 -100 -48 -104 0
45 101 50 106 0
-45 101 -50 106 0
45 -101 50 -106 0
-45 -101 -50 -106 0
46 102 51 107 0
-46 102 -51 107 0
46 -102 51 -107 0
-46 -102 -51 -107 0
46 102 56 112 0
-46 102 -56 112 0
46 -102 56 -112 0
-46 -102 -56 -112 0
47 103 56 112 0
-47 103 -56 112 0
47 -103 56 -112 0
-47 -103 -56 -112 0
47 103 56 112 0
-47 103 -56 112 0
47 -103 56 -112 0
-47 -103 -56 -112 0
47 103 50 106 0
-47 103 -50 106 0
47 -103 50 -106 0
-47 -103 -50 -106 0
48 104 53 109 0
-48 104 -53 109 0
48 -104 53 -109 0
-48 -104 -53 -109 0
48 104 54 110 0
-48 104 -54 110 0
48 -104 54 -110 0
-48 -104 -54 -110 0
49 105 55 111 0
-49 105 -55 111 0
49 -105 55 -111 0
-49 -105 -55 -111 0
49 105 55 111 0
-49 105 -55 111 0
49 -105 55 -111 0
-49 -105 -55 -111 0
50 106 55 111 0
-50 106 -55 111 0
50 -106 55 -111 0
-50 -106 -55 -111 0
52 108 54 110 0
-52 108 -54 110 0
52 -108 54 -110 0
-52 -108 -54 -110 0
54 110 56 112 0
-54 110 -56 112 0
54 -110 56 -112 0
-54 -110 -56 -112 0
